n_res = 4;
rc = [ 33, 34, 38, 34 ];
n_tasks = 30;
d = [ 1, 2, 6, 3, 2, 10, 7, 3, 4, 5, 2, 2, 7, 1, 4, 3, 7, 5, 2, 3, 6, 8, 9, 2, 7, 2, 4, 10, 7, 6 ];
rr = [| 6, 6, 4, 9, 3, 7, 9, 2, 4, 8, 3, 9, 2, 5, 3, 1, 3, 5, 5, 7, 10, 5, 8, 8, 10, 8, 3, 5, 1, 7
      | 3, 5, 9, 2, 5, 7, 9, 8, 6, 5, 8, 4, 9, 8, 1, 10, 5, 3, 3, 8, 7, 10, 9, 4, 6, 1, 3, 5, 3, 6
      | 1, 9, 5, 5, 6, 3, 9, 1, 9, 5, 6, 4, 4, 2, 9, 7, 6, 2, 10, 1, 4, 8, 9, 10, 8, 4, 10, 7, 3, 2
      | 6, 6, 7, 10, 9, 1, 8, 5, 9, 9, 5, 8, 8, 1, 6, 8, 7, 4, 3, 3, 5, 1, 7, 2, 2, 5, 3, 5, 4, 5 |];
suc = [ { 2 }, 
        { 1 }, 
        { 4 }, 
        { 3 }, 
        { 6 }, 
        { 5 }, 
        { 8 }, 
        { 7 }, 
        { 10 }, 
        { 9 }, 
        { 12 }, 
        { 11 }, 
        { 14 }, 
        { 13 }, 
        { 16 }, 
        { 15 }, 
        { 18 }, 
        { 17 }, 
        { 20 }, 
        { 19 }, 
        { 22 }, 
        { 21 }, 
        { 24 }, 
        { 23 }, 
        { 26 }, 
        { 25 }, 
        { 28 }, 
        { 27 }, 
        { 30 }, 
        { 29 }]; 
